Solving original (integer) problem with strategy gdp.hull...
--- Job model.gms Start 02/15/26 00:50:29 52.2.0 d8e408be LEX-LEG x86 64bit/Linux
--- Applying:
    /package/gams/52.2/gmsprmun.txt
--- GAMS Parameters defined
    Input /local/scratch/a/sgusev/repos/k_means/data/gams_gurobi_gdp.hull/no_mode/2026-02-15_00-50-29/original/model.gms
    Output /local/scratch/a/sgusev/repos/k_means/data/gams_gurobi_gdp.hull/no_mode/2026-02-15_00-50-29/original/output.lst
    ScrDir /local/scratch/a/sgusev/repos/k_means/data/gams_gurobi_gdp.hull/no_mode/2026-02-15_00-50-29/original/225a/
    SysDir /package/gams/52.2/
    CurDir /local/scratch/a/sgusev/repos/k_means/data/gams_gurobi_gdp.hull/no_mode/2026-02-15_00-50-29/original/
    LogOption 3
    AppendLog 1
Licensee: David Bernal / SECQUOIA Research Group         G251008+0003Ac-GEN
          Purdue University, Davidson School of Chemical EngineeringDCE4838
          225a/gamslice.dat
          5a82958a-fbca-4a23
          node:66820903 mem:995 cores:48 ipport:57781 v:2                  
          Evaluation license: Not for commercial or production use
          The time-limited license stops working on : Jun 30, 2027
System information: 48 physical cores and 995 Gb physical memory detected
GAMS 52.2.0   Copyright (C) 1987-2025 GAMS Development. All rights reserved
--- Starting compilation
--- model.gms(3575) 2 Mb
--- $echo File /local/scratch/a/sgusev/repos/k_means/data/gams_gurobi_gdp.hull/no_mode/2026-02-15_00-50-29/original/gurobi.opt
--- model.gms(5241) 2 Mb
--- Starting execution: elapsed 0:00:00.019
--- model.gms(3584) 3 Mb
--- Generating MINLP model GAMS_MODEL
--- model.gms(3588) 6 Mb
---   1,091 rows  509 columns  2,629 non-zeroes
---   2,352 nl-code  288 nl-non-zeroes
---   48 discrete-columns
--- Range statistics (absolute non-zero finite values)
--- RHS       [min, max] : [ 4.181E-05, 1.000E+00] - Zero values observed as well
--- Bound     [min, max] : [ 1.000E+00, 1.280E+02] - Zero values observed as well
--- Matrix    [min, max] : [ 9.733E-02, 1.280E+02]
--- model.gms(3588) 4 Mb
--- Executing GUROBI (Solvelink=5): elapsed 0:00:00.025
Reading parameter(s) from "/local/scratch/a/sgusev/repos/k_means/data/gams_gurobi_gdp.hull/no_mode/2026-02-15_00-50-29/original/gurobi.opt"
>>  NonConvex 2
>>  Threads 1
>>  MIPGap 1e-06
>>  MIPGapAbs 1e-10
>>  FeasibilityTol 1e-06
>>  OptimalityTol 1e-06
>>  IntFeasTol 1e-05
Finished reading from "/local/scratch/a/sgusev/repos/k_means/data/gams_gurobi_gdp.hull/no_mode/2026-02-15_00-50-29/original/gurobi.opt"

... GRB_LICENSE_FILE = /local/scratch/a/sgusev/gurobi.lic

    Gurobi           52.2.0 d8e408be Dec 8, 2025           LEG x86 64bit/Linux    

... GAMS/Gurobi Link license.
... GMO Q Extraction (ThreePass): 0.00s

    Gurobi Optimizer version 13.0.0 build v13.0.0rc1 (linux64 - "Oracle Linux Server 9.7")
    
    CPU model: AMD EPYC 7643 48-Core Processor, instruction set [SSE2|AVX|AVX2]
    Thread count: 48 physical cores, 96 logical processors, using up to 1 threads
    
    Non-default parameters:
    TimeLimit  300
    MIPGap  1e-06
    LogToConsole  0
    NonConvex  2
    Threads  1
    
    Optimize a model with 1090 rows, 556 columns and 2372 nonzeros (Min)
    Model fingerprint: 0xb1a4d5c5
    Model has 16 linear objective coefficients
    Model has 48 general nonlinear constraints (480 nonlinear terms)
    Variable types: 508 continuous, 48 integer (0 binary)
    Coefficient statistics:
      Matrix range     [1e+00, 1e+02]
      Objective range  [1e+00, 1e+00]
      Bounds range     [1e+00, 1e+02]
      RHS range        [1e+00, 1e+00]
      NLCon coe range  [4e-05, 1e+00]
    Presolve model has 48 nlconstr
    Added 1008 variables to disaggregate expressions
    Presolve removed 240 rows and 208 columns
    Presolve time: 0.01s
    Presolved: 3154 rows, 1357 columns, 8020 nonzeros
    Presolved model has 480 bilinear constraint(s)
    
    Solving non-convex MIQCP to global optimality
    
    Variable types: 1309 continuous, 48 integer (48 binary)
    Found heuristic solution: objective 20.8917385
    
    Root relaxation: objective 0.000000e+00, 1004 iterations, 0.00 seconds (0.00 work units)
    
        Nodes    |    Current Node    |     Objective Bounds      |     Work
     Expl Unexpl |  Obj  Depth IntInf | Incumbent    BestBd   Gap | It/Node Time
    
         0     0    0.00000    0  432   20.89174    0.00000   100%     -    0s
         0     0    0.00000    0  434   20.89174    0.00000   100%     -    0s
         0     0    0.00000    0  426   20.89174    0.00000   100%     -    0s
         0     0    0.00000    0  891   20.89174    0.00000   100%     -    0s
         0     0    0.00000    0  537   20.89174    0.00000   100%     -    0s
         0     0    0.00000    0  450   20.89174    0.00000   100%     -    0s
         0     0    0.00000    0  440   20.89174    0.00000   100%     -    0s
         0     0    0.00000    0  361   20.89174    0.00000   100%     -    0s
         0     0    0.00000    0  461   20.89174    0.00000   100%     -    0s
         0     0    0.00000    0  461   20.89174    0.00000   100%     -    0s
         0     0    0.00000    0  351   20.89174    0.00000   100%     -    0s
         0     0    0.00000    0  351   20.89174    0.00000   100%     -    0s
         0     0    0.00000    0  351   20.89174    0.00000   100%     -    0s
    H    0     0                      18.1352233    0.00000   100%     -    0s
    H    0     0                      17.3304798    0.00000   100%     -    0s
         0     0    0.00000    0  193   17.33048    0.00000   100%     -    0s
         0     0    0.00000    0  193   17.33048    0.00000   100%     -    0s
         0     0    0.00000    0  160   17.33048    0.00000   100%     -    0s
         0     0    0.00000    0  164   17.33048    0.00000   100%     -    0s
         0     0    0.00000    0  175   17.33048    0.00000   100%     -    0s
         0     0    0.00000    0  150   17.33048    0.00000   100%     -    0s
         0     0    0.00000    0  154   17.33048    0.00000   100%     -    0s
         0     0    0.00000    0  168   17.33048    0.00000   100%     -    0s
         0     0    0.00000    0  141   17.33048    0.00000   100%     -    0s
         0     0    0.00000    0  141   17.33048    0.00000   100%     -    0s
         0     0    0.00000    0  141   17.33048    0.00000   100%     -    0s
         0     2    0.00000    0  141   17.33048    0.00000   100%     -    0s
    H    2     2                      12.7754738    0.00000   100%  15.0    0s
    H   41    41                      12.3785591    0.00000   100%  27.2    0s
    H  333   248                      11.1102176    0.00000   100%  18.0    2s
    H  527   378                      11.0706756    0.00000   100%  16.0    2s
       706   507    8.13012   70   91   11.07068    0.00000   100%  31.0    5s
    H  736   491                      11.0706744    0.00000   100%  33.9    5s
    H  865   544                      10.9267964    0.00000   100%  33.7    5s
    H  997   530                       9.7294436    0.00000   100%  36.4    6s
    H  998   511                       9.6543120    0.00000   100%  36.4    6s
    H  998   493                       9.6543120    0.00000   100%  36.4    6s
    H 1724   860                       9.6543120    0.00000   100%  35.8    7s
      2968  1521    8.82832   32  108    9.65431    1.03216  89.3%  35.5   10s
    H 3725  1896                       9.4846207    1.16494  87.7%  34.1   10s
    H 4388  2190                       9.1011815    1.25392  86.2%  32.2   11s
      6711  3276    3.84979   23  138    9.10118    1.92541  78.8%  32.4   15s
     10439  4928     cutoff   30         9.10118    2.54479  72.0%  31.3   20s
     14078  6270     cutoff   32         9.10118    3.03908  66.6%  31.0   25s
     17710  7465    6.30525   21  129    9.10118    3.43727  62.2%  30.5   30s
     21534  8702    7.70074   29  130    9.10118    3.75159  58.8%  29.8   35s
     25384  9766    6.73201   25  122    9.10118    4.00809  56.0%  29.2   40s
     29151 10684    8.33817   28  118    9.10118    4.22382  53.6%  28.9   45s
     32815 11574     cutoff   45         9.10118    4.43374  51.3%  28.5   50s
     36666 12382    8.34897   26  137    9.10118    4.61815  49.3%  28.3   55s
     40439 13132    7.54106   25  134    9.10118    4.76760  47.6%  28.0   60s
     44062 13803    8.03998   27  147    9.10118    4.93580  45.8%  27.8   65s
     47781 14459    8.33869   25  111    9.10118    5.07634  44.2%  27.6   70s
    H47850 14450                       9.0857628    5.07714  44.1%  27.6   70s
     51349 14950    8.84107   25   94    9.08576    5.18581  42.9%  27.4   75s
     54477 15376     cutoff   31         9.08576    5.28935  41.8%  27.2   80s
     58222 15750    7.80032   33  116    9.08576    5.42043  40.3%  27.1   85s
     62024 16175    8.14213   38   92    9.08576    5.53131  39.1%  26.9   90s
     65760 16569     cutoff   30         9.08576    5.65040  37.8%  26.8   95s
     69565 16836    7.03346   23  142    9.08576    5.75937  36.6%  26.6  100s
     73318 17106    8.04147   33  114    9.08576    5.86541  35.4%  26.5  105s
     77098 17292    7.34007   28  115    9.08576    5.96567  34.3%  26.3  110s
     80761 17407     cutoff   33         9.08576    6.05837  33.3%  26.2  115s
    H83342 17468                       9.0538088    6.11219  32.5%  26.1  118s
     84451 17479    7.46674   23  123    9.05381    6.13649  32.2%  26.1  120s
     88135 17599    8.85545   34   81    9.05381    6.21897  31.3%  26.0  125s
     91797 17603    7.22995   24  120    9.05381    6.31067  30.3%  25.9  130s
     95542 17550    8.61342   32   96    9.05381    6.39786  29.3%  25.8  135s
     99339 17472 infeasible   26         9.05381    6.48521  28.4%  25.7  140s
     102921 17279     cutoff   29         9.05381    6.56850  27.5%  25.7  145s
     106722 17028    7.37284   22  118    9.05381    6.65731  26.5%  25.6  150s
     110431 16804    8.05411   22  128    9.05381    6.73746  25.6%  25.5  155s
     114286 16448     cutoff   28         9.05381    6.82426  24.6%  25.5  160s
     117828 16103 infeasible   31         9.05381    6.90616  23.7%  25.4  165s
     121662 15535    8.28351   26  114    9.05381    7.00179  22.7%  25.3  170s
     125395 14928    8.03176   21  129    9.05381    7.09998  21.6%  25.3  175s
     129212 14226    8.54616   30  132    9.05381    7.19326  20.5%  25.2  180s
     133076 13752 infeasible   23         9.05381    7.28617  19.5%  25.1  185s
     136773 12884     cutoff   29         9.05381    7.38686  18.4%  25.0  190s
     140541 11714    7.67339   31  119    9.05381    7.51206  17.0%  25.0  195s
    *143319 10838             145       8.9584086    7.60153  15.1%  24.9  198s
    *143334 10835             145       8.9583986    7.60153  15.1%  24.9  198s
     144335 10395    7.74153   27  135    8.95840    7.64401  14.7%  24.9  200s
     147970  9373    8.85024   66   58    8.95840    7.78756  13.1%  24.8  205s
     152030  8270    8.47772   31   96    8.95840    7.94957  11.3%  24.6  210s
     155983  7895     cutoff   34         8.95840    8.08279  9.77%  24.2  215s
     160157  7497     cutoff   68         8.95840    8.19998  8.47%  23.9  220s
     164184  7873    8.95479   74   27    8.95840    8.26968  7.69%  23.5  225s
     168271  8612    8.86288   80   37    8.95840    8.32649  7.05%  23.0  230s
     172199  9265     cutoff   59         8.95840    8.37159  6.55%  22.7  235s
     175968 10074 infeasible   60         8.95840    8.40658  6.16%  22.3  240s
     179777 11059     cutoff   69         8.95840    8.43464  5.85%  21.9  245s
     183595 11931    8.79716   66   49    8.95840    8.45496  5.62%  21.6  250s
     187361 12613    8.86058   95   48    8.95840    8.47567  5.39%  21.3  255s
     191237 14034    8.76704   55   43    8.95840    8.48841  5.25%  20.9  260s
     194945 15429    8.88240   87   41    8.95840    8.49832  5.14%  20.6  265s
    H195327 13617                       8.9390249    8.49896  4.92%  20.6  265s
    H195327 13616                       8.9389664    8.49896  4.92%  20.6  265s
    H195327 13390                       8.9382657    8.49896  4.91%  20.6  265s
    H196321 13548                       8.9382656    8.50448  4.85%  20.5  266s
    H196950 13741                       8.9382656    8.50653  4.83%  20.5  267s
    H197422 13991                       8.9382656    8.50769  4.82%  20.4  268s
    H198211 14178                       8.9382656    8.50969  4.79%  20.4  269s
     198514 14381     cutoff  109         8.93827    8.50996  4.79%  20.3  270s
    H199549 14614                       8.9382611    8.51488  4.74%  20.3  271s
    H199549 14614                       8.9382611    8.51488  4.74%  20.3  271s
    H200274 14771                       8.9382601    8.51758  4.71%  20.2  272s
     202025 14942    8.70885   66   43    8.93826    8.52638  4.61%  20.1  275s
    H204996 15745                       8.9382596    8.53562  4.50%  19.9  279s
    H204996 15745                       8.9382596    8.53562  4.50%  19.9  279s
     205498 16059    8.93800  133   25    8.93826    8.53616  4.50%  19.8  280s
     209293 17344    8.84508   64   37    8.93826    8.54500  4.40%  19.5  285s
     213413 18222    8.93448   71   32    8.93826    8.55679  4.27%  19.3  290s
     217656 18790    8.91022   76   37    8.93826    8.57191  4.10%  19.0  295s
    
    Cutting planes:
      Learned: 73
      Implied bound: 78
      Projected implied bound: 2
      MIR: 10
      Flow cover: 34
      Inf proof: 1
      RLT: 14
      Relax-and-lift: 18
      PSD: 5
    
    Explored 222258 nodes (4164481 simplex iterations) in 300.00 seconds (218.13 work units)
    Thread count was 1 (of 96 available processors)
    
    Solution count 10: 8.93826 8.93826 8.93826 ... 9.05381
    
    Time limit reached
    Best objective 8.938259599187e+00, best bound 8.583613101358e+00, gap 3.9677%
    
    User-callback calls 222300, time in user-callback 0.01 sec

--- Reading solution for model GAMS_MODEL
***
*** Solver did not provide marginals for model GAMS_MODEL
***
--- Executing after solve: elapsed 0:05:00.068
--- model.gms(3591) 4 Mb
--- model.gms(5241) 6 Mb
--- Putfile results /local/scratch/a/sgusev/repos/k_means/data/gams_gurobi_gdp.hull/no_mode/2026-02-15_00-50-29/original/results.dat
--- Putfile statresults /local/scratch/a/sgusev/repos/k_means/data/gams_gurobi_gdp.hull/no_mode/2026-02-15_00-50-29/original/resultsstat.dat
*** Status: Normal completion
--- Job model.gms Stop 02/15/26 00:55:29 elapsed 0:05:00.070
Original problem solved. Time taken: 300.65099120140076 seconds
Original objective value: 8.93825959918653
